200 200
52 34
31 14
29 7
16 79
7 48
7 24
21 12
22 37
15 13
5 24
10 35
3 6
3 10
15 26
27 11
1 6
2 4
5 2
13 14
13 10
15 36
14 26
23 98
20 26
24 52
11 36
14 28
2 8
12 29
13 21
11 7
4 15
14 10
7 5
7 19
42 22
11 14
50 11
2 2
62 9
33 11
18 18
42 32
19 34
25 11
8 7
26 4
21 26
30 10
72 16
35 14
13 48
76 13
7 17
7 18
25 8
12 22
13 45
21 20
3 5
28 15
37 20
13 29
26 94
6 13
1 1
8 12
26 23
42 26
9 26
60 14
37 12
23 19
14 28
28 7
46 7
97 21
28 15
9 9
22 6
6 14
9 5
23 9
7 14
18 17
6 9
3 16
5 12
18 41
5 34
2 3
20 31
10 2
15 11
12 7
20 29
48 9
